NAME : 	X-n181-k23	
COMMENT : 	"Generated by Uchoa, Pecin, Pessoa, Poggi, Subramanian, and Vidal (2013)"	
TYPE : 	CVRP	
DIMENSION : 	181	
EDGE_WEIGHT_TYPE : 	EUC_2D	
CAPACITY : 	8	
NODE_COORD_SECTION		
1	894	510
2	463	887
3	704	177
4	424	368
5	420	800
6	492	610
7	607	749
8	455	819
9	343	457
10	387	275
11	466	653
12	607	348
13	428	546
14	764	848
15	403	298
16	315	738
17	457	902
18	597	584
19	219	552
20	526	359
21	414	340
22	398	401
23	579	780
24	518	563
25	531	597
26	501	827
27	687	200
28	670	234
29	488	981
30	673	222
31	359	256
32	537	675
33	788	95
34	433	820
35	397	770
36	444	799
37	367	288
38	253	774
39	570	853
40	379	843
41	388	736
42	565	785
43	608	193
44	430	657
45	775	142
46	721	600
47	434	876
48	683	311
49	592	740
50	500	315
51	428	915
52	710	258
53	709	272
54	426	803
55	409	639
56	535	572
57	502	916
58	528	728
59	351	371
60	657	782
61	493	265
62	751	112
63	469	594
64	720	165
65	463	624
66	751	96
67	496	833
68	565	459
69	471	361
70	448	969
71	361	559
72	529	582
73	515	809
74	497	434
75	429	879
76	483	715
77	264	574
78	793	916
79	448	386
80	325	199
81	327	370
82	484	861
83	432	873
84	412	853
85	641	155
86	712	163
87	456	612
88	301	921
89	480	400
90	700	165
91	690	213
92	478	811
93	665	56
94	430	368
95	414	943
96	709	235
97	296	297
98	380	773
99	459	423
100	498	910
101	464	939
102	677	704
103	420	381
104	398	872
105	554	512
106	486	614
107	584	809
108	429	336
109	461	529
110	470	360
111	494	769
112	407	661
113	687	711
114	454	745
115	593	471
116	537	648
117	666	111
118	452	797
119	430	742
120	481	958
121	636	741
122	405	576
123	666	234
124	603	683
125	473	466
126	378	867
127	611	739
128	342	688
129	446	280
130	585	888
131	496	418
132	711	27
133	791	198
134	660	828
135	414	839
136	504	592
137	665	921
138	448	320
139	550	637
140	637	758
141	743	166
142	504	869
143	708	432
144	664	343
145	499	493
146	878	706
147	396	920
148	275	924
149	727	669
150	728	203
151	367	739
152	444	808
153	755	303
154	445	864
155	561	848
156	597	660
157	386	700
158	652	240
159	344	301
160	209	369
161	571	812
162	454	353
163	497	781
164	697	220
165	296	787
166	517	506
167	409	893
168	339	886
169	518	788
170	719	99
171	607	654
172	218	312
173	533	847
174	523	938
175	598	705
176	481	772
177	461	431
178	375	722
179	460	681
180	524	610
181	771	752
DEMAND_SECTION		
1	0	
2	1	
3	1	
4	1	
5	1	
6	1	
7	1	
8	1	
9	1	
10	1	
11	1	
12	1	
13	1	
14	1	
15	1	
16	1	
17	1	
18	1	
19	1	
20	1	
21	1	
22	1	
23	1	
24	1	
25	1	
26	1	
27	1	
28	1	
29	1	
30	1	
31	1	
32	1	
33	1	
34	1	
35	1	
36	1	
37	1	
38	1	
39	1	
40	1	
41	1	
42	1	
43	1	
44	1	
45	1	
46	1	
47	1	
48	1	
49	1	
50	1	
51	1	
52	1	
53	1	
54	1	
55	1	
56	1	
57	1	
58	1	
59	1	
60	1	
61	1	
62	1	
63	1	
64	1	
65	1	
66	1	
67	1	
68	1	
69	1	
70	1	
71	1	
72	1	
73	1	
74	1	
75	1	
76	1	
77	1	
78	1	
79	1	
80	1	
81	1	
82	1	
83	1	
84	1	
85	1	
86	1	
87	1	
88	1	
89	1	
90	1	
91	1	
92	1	
93	1	
94	1	
95	1	
96	1	
97	1	
98	1	
99	1	
100	1	
101	1	
102	1	
103	1	
104	1	
105	1	
106	1	
107	1	
108	1	
109	1	
110	1	
111	1	
112	1	
113	1	
114	1	
115	1	
116	1	
117	1	
118	1	
119	1	
120	1	
121	1	
122	1	
123	1	
124	1	
125	1	
126	1	
127	1	
128	1	
129	1	
130	1	
131	1	
132	1	
133	1	
134	1	
135	1	
136	1	
137	1	
138	1	
139	1	
140	1	
141	1	
142	1	
143	1	
144	1	
145	1	
146	1	
147	1	
148	1	
149	1	
150	1	
151	1	
152	1	
153	1	
154	1	
155	1	
156	1	
157	1	
158	1	
159	1	
160	1	
161	1	
162	1	
163	1	
164	1	
165	1	
166	1	
167	1	
168	1	
169	1	
170	1	
171	1	
172	1	
173	1	
174	1	
175	1	
176	1	
177	1	
178	1	
179	1	
180	1	
181	1	
DEPOT_SECTION		
	1	
	-1	
EOF		
